c b=4,c=1091
p cnf 18 54
1 3 4 -8 0
2 4 -9 0
4 -14 0
4 -18 0
1 3 -4 8 0
1 3 -4 9 0
-4 14 0
-4 18 0
2 3 -7 0
1 3 -10 0
3 -13 0
3 -17 0
2 -3 4 8 0
4 -10 0
2 -3 -4 -8 0
-3 -4 10 0
2 -3 7 0
2 -3 -9 0
-3 13 0
-3 17 0
1 2 -6 0
2 -12 0
2 -16 0
1 -2 4 -8 0
3 4 -9 0
1 -2 -4 8 0
1 -2 3 7 0
-2 -3 4 9 0
-3 -4 -9 0
1 -2 -3 -7 0
1 -2 6 0
-2 12 0
-2 16 0
1 -5 0
1 -11 0
1 -15 0
2 3 4 -8 0
2 3 -4 8 0
2 3 -4 9 0
-1 3 -7 0
2 3 -10 0
-1 -3 7 0
-1 2 6 0
-1 -2 3 4 8 0
-1 -2 3 -4 -8 0
-1 -2 -4 10 0
-1 -2 3 -9 0
-2 -3 4 -8 0
-2 -3 -4 8 0
-1 -2 -4 -9 0
-1 -2 -6 0
-1 5 0
-1 11 0
-1 15 0
